certificates/rado_a9_c33_N17.cnf
c Rad2 upper bound instance: x1 + 9*x2 - x3 = 33, interval [1,17]
p cnf 17 64
1 4 0
-1 -4 0
1 5 13 0
-1 -5 -13 0
2 4 5 0
-2 -4 -5 0
2 5 14 0
-2 -5 -14 0
3 4 6 0
-3 -4 -6 0
3 5 15 0
-3 -5 -15 0
4 7 0
-4 -7 0
4 5 16 0
-4 -5 -16 0
4 5 8 0
-4 -5 -8 0
5 17 0
-5 -17 0
4 6 9 0
-4 -6 -9 0
1 3 7 0
-1 -3 -7 0
4 7 10 0
-4 -7 -10 0
2 3 8 0
-2 -3 -8 0
4 8 11 0
-4 -8 -11 0
3 9 0
-3 -9 0
4 9 12 0
-4 -9 -12 0
3 4 10 0
-3 -4 -10 0
4 10 13 0
-4 -10 -13 0
3 5 11 0
-3 -5 -11 0
4 11 14 0
-4 -11 -14 0
3 6 12 0
-3 -6 -12 0
4 12 15 0
-4 -12 -15 0
3 7 13 0
-3 -7 -13 0
4 13 16 0
-4 -13 -16 0
3 8 14 0
-3 -8 -14 0
4 14 17 0
-4 -14 -17 0
3 9 15 0
-3 -9 -15 0
1 2 16 0
-1 -2 -16 0
3 10 16 0
-3 -10 -16 0
2 17 0
-2 -17 0
3 11 17 0
-3 -11 -17 0
