certificates/rado_a9_c33_N17.drat
-17 0
5 0
2 0
-14 0
-4 0
0
